c User generated cnf file
p cnf 15 55
4 7 -6 0 
13 -3 14 0 
10 5 -10 0 
9 -9 1 0 
6 7 -12 0 
4 13 -4 0 
11 13 -14 0 
6 -7 11 0 
15 6 -2 0 
10 8 -15 0 
7 15 -15 0 
15 -13 1 0 
7 6 -3 0 
12 14 -14 0 
4 -9 1 0 
9 1 -8 0 
9 -11 12 0 
7 -1 10 0 
8 -15 4 0 
7 -6 1 0 
8 -6 15 0 
8 -10 3 0 
2 12 -8 0 
10 -2 7 0 
8 -9 15 0 
7 14 -14 0 
4 1 -1 0 
13 10 -5 0 
13 -7 6 0 
13 12 -1 0 
5 9 -8 0 
3 -10 12 0 
12 -7 3 0 
12 -7 7 0 
11 7 -8 0 
8 -14 2 0 
5 15 -15 0 
15 1 -1 0 
9 11 -11 0 
7 9 -8 0 
10 -10 13 0 
5 10 -3 0 
2 8 -5 0 
12 6 -8 0 
9 1 -4 0 
6 12 -2 0 
10 -11 12 0 
10 6 -4 0 
15 -8 11 0 
11 -2 3 0 
9 -5 8 0 
4 -10 11 0 
10 -11 12 0 
2 11 -6 0 
14 -11 10 0 
